96
2
11 71 40 38 20 30 53 2 72 35 96 16 39 45 16 69 52 59 47 75 85 59 93 26 56 
71 81 18 95 65 89 58 67 39 95 32 73 97 90 51 30 81 22 52 15 88 48 89 60 59 
1 1 1 2 1 2 1 2 1 1 1 1 2 2 2 1 2 2 1 2 2 1 2 2 1 